p cnf 39 113
a 3 31 0
e 1 2 4 5 6 7 8 9 10 11 12 13 14 15 16 17 18 19 20 21 22 23 24 25 26 27 28 29 30 32 33 34 35 36 37 38 39 0
-3 1 0
-3 2 0
-1 -2 3 0
-6 -1 0
-6 5 0
1 -5 6 0
7 -4 0
7 6 0
4 -6 -7 0
8 3 0
8 -7 0
-3 7 -8 0
10 -8 0
10 9 0
8 -9 -10 0
-5 3 -11 0
5 -3 -11 0
-5 -3 11 0
5 3 11 0
12 7 0
12 -11 0
-7 11 -12 0
-10 -12 -13 0
10 12 -13 0
-10 12 13 0
10 -12 13 0
14 -7 0
14 -9 0
7 9 -14 0
-7 -14 -15 0
7 14 -15 0
-7 14 15 0
7 -14 15 0
16 -8 0
16 -15 0
8 15 -16 0
-13 16 -17 0
13 -16 -17 0
-13 -16 17 0
13 16 17 0
19 9 0
19 18 0
-9 -18 -19 0
-11 5 -20 0
11 -5 -20 0
-11 -5 20 0
11 5 20 0
19 20 -21 0
-19 -20 -21 0
19 -20 21 0
-19 20 21 0
17 21 -22 0
-17 -21 -22 0
17 -21 22 0
-17 21 22 0
24 -5 0
24 23 0
5 -23 -24 0
-26 -9 0
-26 25 0
9 -25 26 0
-24 26 -27 0
24 -26 -27 0
-24 -26 27 0
24 26 27 0
-28 7 0
-28 18 0
-7 -18 28 0
-29 2 0
-29 28 0
-2 -28 29 0
27 -29 -30 0
-27 29 -30 0
27 29 30 0
-27 -29 30 0
-31 6 0
-31 -6 0
-32 -30 0
-32 31 0
30 -31 32 0
33 -23 0
33 -7 0
23 7 -33 0
34 4 0
34 -2 0
-4 2 -34 0
35 33 0
35 -34 0
-33 34 -35 0
-36 -5 0
-36 2 0
5 -2 36 0
-37 -35 0
-37 36 0
35 -36 37 0
-38 32 0
-38 37 0
-32 -37 38 0
22 38 -39 0
-22 -38 -39 0
22 -38 39 0
-22 38 39 0
-32 15 33 -18 -13 0
-36 -28 38 12 34 -27 29 -23 0
-19 -9 30 0
3 14 2 0
2 -12 36 -34 -7 -33 22 0
24 -6 -9 -26 38 0
-9 -25 38 39 -18 0
37 -15 -26 38 -4 -25 -20 0
14 26 35 0
-12 37 23 30 0
39 0
